# 2d Lennard-Jones gas
units lj
dimension 2
atom_style atomic
lattice hex 0.10
region box block 0 20 0 10 -0.1 0.1
create_box 1 box
create_atoms 1 box
mass 1 1.0
velocity all create 2.5 87287
pair_style lj/cut 2.5
pair_coeff 1 1 1.0 1.0 2.5
neighbor 0.3 bin
neigh_modify every 20 delay 0 check no
fix 1 all nve
dump 1 all custom 10 gasstat01.lammpstrj id type x y z vx vy vz
thermo 100
run 50000
